
Welcome to IBM(R) ILOG(R) CPLEX(R) Interactive Optimizer 22.1.1.0
  with Simplex, Mixed Integer & Barrier Optimizers
5725-A06 5725-A29 5724-Y48 5724-Y49 5724-Y54 5724-Y55 5655-Y21
Copyright IBM Corp. 1988, 2022.  All Rights Reserved.

Type 'help' for a list of available commands.
Type 'help' followed by a command name for more
information on commands.

CPLEX> Selected objective sense:  MINIMIZE
Selected objective  name:  00000000
Selected RHS        name:  RHS1
Selected bound      name:  BOUND
Problem 'ee.mps' read.
Read time = 0.01 sec. (3.14 ticks)
CPLEX> New value for time limit in seconds: 7200
CPLEX> New value for parallel optimization mode: -1
CPLEX> New value for default parallel thread count: 40
CPLEX> New value for mixed integer optimality gap tolerance: 1e-13
CPLEX> Version identifier: 22.1.1.0 | 2022-11-28 | 9160aff4d
CPXPARAM_Threads                                 40
CPXPARAM_Parallel                                -1
CPXPARAM_TimeLimit                               7200
CPXPARAM_MIP_Tolerances_MIPGap                   1e-13
Found incumbent of value 0.000000 after 0.00 sec. (0.31 ticks)
Tried aggregator 2 times.
MIP Presolve eliminated 275 rows and 3331 columns.
MIP Presolve modified 5877 coefficients.
Aggregator did 873 substitutions.
Reduced MIP has 3370 rows, 6965 columns, and 25886 nonzeros.
Reduced MIP has 6965 binaries, 0 generals, 0 SOSs, and 0 indicators.
Presolve time = 0.07 sec. (70.02 ticks)
Probing fixed 24 vars, tightened 0 bounds.
Probing time = 0.06 sec. (28.72 ticks)
Tried aggregator 2 times.
Detecting symmetries...
MIP Presolve eliminated 26 rows and 44 columns.
Aggregator did 4 substitutions.
Reduced MIP has 3340 rows, 6911 columns, and 25712 nonzeros.
Reduced MIP has 6911 binaries, 0 generals, 0 SOSs, and 0 indicators.
Presolve time = 0.04 sec. (46.54 ticks)
Probing time = 0.02 sec. (5.05 ticks)
Clique table members: 16581.
MIP emphasis: balance optimality and feasibility.
MIP search method: dynamic search.
Parallel mode: opportunistic, using up to 40 threads.
Root relaxation solution time = 0.08 sec. (73.39 ticks)

        Nodes                                         Cuts/
   Node  Left     Objective  IInf  Best Integer    Best Bound    ItCnt     Gap

*     0+    0                            0.0000  -1.31000e+13              --- 
*     0+    0                      -7.59000e+12  -1.31000e+13            72.60%
      0     0  -1.30900e+13    59  -7.59000e+12  -1.30900e+13     1668   72.46%
*     0+    0                      -1.30900e+13  -1.30900e+13             0.00%
      0     0  -1.30900e+13    75  -1.30900e+13      Cuts: 49     1828    0.00%
      0     0  -1.30900e+13   123  -1.30900e+13      Cuts: 34     2037    0.00%
*     0+    0                      -1.30900e+13  -1.30900e+13             0.00%
*     0+    0                      -1.30900e+13  -1.30900e+13             0.00%
      0     2  -1.30900e+13    92  -1.30900e+13  -1.30900e+13     2037    0.00%
Elapsed time = 1.70 sec. (880.19 ticks, tree = 0.02 MB, solutions = 5)
*    26+   36                      -1.30900e+13  -1.30900e+13             0.00%
    526    92  -1.30900e+13    93  -1.30900e+13  -1.30900e+13    20954    0.00%
   1179    52        cutoff        -1.30900e+13  -1.30900e+13   114745    0.00%
   2269    99  -1.30900e+13    35  -1.30900e+13  -1.30900e+13    93096    0.00%
*  2441    64      integral     0  -1.30900e+13  -1.30900e+13   212650    0.00%
   3809    65  -1.30900e+13   116  -1.30900e+13  -1.30900e+13   220597    0.00%
   5035    95  -1.30900e+13    64  -1.30900e+13  -1.30900e+13   177762    0.00%
   5805     6        cutoff        -1.30900e+13  -1.30900e+13   457792    0.00%
   6320    75        cutoff        -1.30900e+13  -1.30900e+13   242418    0.00%
   6560    35        cutoff        -1.30900e+13  -1.30900e+13   405466    0.00%
   6639     2        cutoff        -1.30900e+13  -1.30900e+13   465632    0.00%

GUB cover cuts applied:  1
Clique cuts applied:  7
Cover cuts applied:  532
Flow cuts applied:  2
Mixed integer rounding cuts applied:  4
Zero-half cuts applied:  7
Lift and project cuts applied:  1
Gomory fractional cuts applied:  15

Root node processing (before b&c):
  Real time             =    1.17 sec. (879.02 ticks)
Parallel b&c, 40 threads:
  Real time             =    4.52 sec. (2163.39 ticks)
  Sync time (average)   =    1.91 sec.
  Wait time (average)   =    0.00 sec.
                          ------------
Total (root+branch&cut) =    5.69 sec. (3042.40 ticks)

Solution pool: 14 solutions saved.

MIP - Integer optimal solution:  Objective = -1.3089999990e+13
Solution time =    5.79 sec.  Iterations = 466033  Nodes = 6640
Deterministic time = 3042.44 ticks  (525.60 ticks/sec)

CPLEX> Solution 'p15' written to file 'ee.sol'.
CPLEX> 